\ Model Modelo TS-Loss
\ LP format - for model browsing. Use MPS format to capture full model detail.
Minimize
  6500 Pg[1] + 19000 Pg[2] + 10000 Pg[3] + 4000 Pg[4] + 0 n_l[0] + 0 n_l[1]
   + 0 n_l[2] + 0 n_a[0,0] + 0 n_a[0,1] + 0 n_a[1,0] + 0 n_a[1,1]
   + 0 n_a[2,0] + 0 n_a[2,1]
Subject To
 Balance: Pg[0] + Pg[1] + Pg[2] + Pg[3] + Pg[4] - ploss[0] - ploss[1]
   - ploss[2] = 3.2
 PMax[0]: - Pg[0] >= -2.2
 PMax[1]: - Pg[1] >= -1
 PMax[2]: - Pg[2] >= -0.7
 PMax[3]: - Pg[3] >= -1.4
 PMax[4]: - Pg[4] >= -0.8
 PMin[0]: Pg[0] >= 0
 PMin[1]: Pg[1] >= 0.1
 PMin[2]: Pg[2] >= 0.4
 PMin[3]: Pg[3] >= 0.5
 PMin[4]: Pg[4] >= 0.2
 R11: Pg[0] = 0
 Ploss[0]: ploss[0] - 0.00981000281354649 dpk[0,0]
   - 0.0294300084406395 dpk[0,1] = 0
 Ploss[1]: ploss[1] - 0.0208000060803015 dpk[1,0]
   - 0.0624000182409044 dpk[1,1] = 0
 Ploss[2]: ploss[2] - 0.0116000033909374 dpk[2,0]
   - 0.0348000101728121 dpk[2,1] = 0
 fe_p[0]: - 0.902192240467107 Pg[1] - 0.5514333786939732 Pg[4]
   + 0.4510961202335535 ploss[2] - 0.5514333786939732 f_ts[0]
   + 0.3507588617731338 f_ts[1] >= -1.992411725309572
 fe_n[0]: 0.902192240467107 Pg[1] + 0.5514333786939732 Pg[4]
   - 0.4510961202335535 ploss[2] + 0.5514333786939732 f_ts[0]
   - 0.3507588617731338 f_ts[1] >= -0.00758879628193632
 fs1_p[0]: 0.0978077595328931 Pg[1] + 0.4485666213060268 Pg[4]
   - 0.2242833106530134 ploss[0] - 0.2731871904194599 ploss[1]
   - 0.2000000493200983 s_ts[0] - 0.5514333786939732 f_ts[0]
   + 0.3507588617731337 f_ts[1] <= 0.1075885354861824
 fs1_p[1]: - 0.0978077595328931 Pg[1] + 0.551433378693973 Pg[4]
   - 0.2757166893469865 ploss[0] - 0.22681280958054 ploss[1]
   - 1.000000260795754 s_ts[1] + 0.551433378693973 f_ts[0]
   - 0.3507588617731339 f_ts[1] <= -0.1075885354861824
 fs1_n[0]: 0.0978077595328931 Pg[1] + 0.4485666213060268 Pg[4]
   - 0.2242833106530134 ploss[0] - 0.2731871904194599 ploss[1]
   + 0.2000000493200983 s_ts[0] - 0.5514333786939732 f_ts[0]
   + 0.3507588617731337 f_ts[1] >= 0.1075885354861824
 fs1_n[1]: - 0.0978077595328931 Pg[1] + 0.551433378693973 Pg[4]
   - 0.2757166893469865 ploss[0] - 0.22681280958054 ploss[1]
   + 1.000000260795754 s_ts[1] + 0.551433378693973 f_ts[0]
   - 0.3507588617731339 f_ts[1] >= -0.1075885354861824
 fs2_p[0]: 100000 s_ts[0] + f_ts[0] <= 100000
 fs2_p[1]: 100000 s_ts[1] + f_ts[1] <= 100000
 fs2_n[0]: - 100000 s_ts[0] + f_ts[0] >= -100000
 fs2_n[1]: - 100000 s_ts[1] + f_ts[1] >= -100000
 R25: - fp[0] - fn[0] + dpk[0,0] + dpk[0,1] = 0
 R26: - fp[1] - fn[1] + dpk[1,0] + dpk[1,1] = 0
 R27: - fp[2] - fn[2] + dpk[2,0] + dpk[2,1] = 0
 flujo[0]: f[0] - fp[0] + fn[0] = 0
 flujo[1]: f[1] - fp[1] + fn[1] = 0
 flujo[2]: f[2] - fp[2] + fn[2] = 0
 R31: - 0.0978077595328931 Pg[1] - 0.4485666213060268 Pg[4] + f[0]
   + 0.2242833106530134 ploss[0] + 0.2731871904194599 ploss[1]
   + 0.5514333786939732 f_ts[0] - 0.3507588617731337 f_ts[1]
   = -0.1075885354861824
 R32: 0.0978077595328931 Pg[1] - 0.551433378693973 Pg[4] + f[1]
   + 0.2757166893469865 ploss[0] + 0.22681280958054 ploss[1]
   - 0.551433378693973 f_ts[0] + 0.3507588617731339 f_ts[1]
   = 0.1075885354861824
 R33: - 0.902192240467107 Pg[1] - 0.5514333786939732 Pg[4] + f[2]
   + 0.4510961202335535 ploss[2] - 0.5514333786939732 f_ts[0]
   + 0.3507588617731338 f_ts[1] = -0.9924114645138178
 suma_f[0]: - fp[0] - fn[0] - 0.5 ploss[0] >= -0.2000000493200983
 suma_f[1]: - fp[1] - fn[1] - 0.5 ploss[1] >= -1.000000260795754
 suma_f[2]: - fp[2] - fn[2] - 0.5 ploss[2] >= -1.000000260795754
Bounds
 f[0] free
 f[1] free
 f[2] free
 f_ts[0] free
 f_ts[1] free
Binaries
 n_l[0] n_l[1] n_l[2] n_a[0,0] n_a[0,1] n_a[1,0] n_a[1,1] n_a[2,0] n_a[2,1]
 s_ts[0] s_ts[1]
End
